NAME : random599140
COMMENT: random generated with id 599140
TYPE : TSP
DIMENSION : 19
EDGE_WEIGHT_TYPE : EUC_2D
NODE_COORD_SECTION
1 3.356438 9.193998
2 11.420400 0.164172
3 7.273019 0.772312
4 7.882740 10.995256
5 15.816185 1.196604
6 15.718228 11.078193
7 6.240203 11.730735
8 14.332369 9.463481
9 4.194019 7.327464
10 11.343071 5.526886
11 10.886067 19.665610
12 4.270516 1.004444
13 10.915960 10.896917
14 4.111572 6.924437
15 3.241685 10.610540
16 8.968387 6.598123
17 19.804538 0.388787
18 6.762295 7.077557
19 1.161099 14.645035
EOF
